
Gurobi 13.0.0 (linux64) logging started Fri Jan 16 03:50:17 2026

Set parameter LogFile to value "../experiments/network-n_50_s_2_rp_0-app_set-id_38_17_apps/submip_40_epr1_model_gurobi.log"
Set parameter TimeLimit to value 8.4463309243500407e+02
Gurobi Optimizer version 13.0.0 build v13.0.0rc1 (linux64 - "Ubuntu 24.04.3 LTS")

CPU model: Intel(R) Core(TM) Ultra 7 165H, instruction set [SSE2|AVX|AVX2]
Thread count: 22 physical cores, 22 logical processors, using up to 22 threads

Non-default parameters:
TimeLimit  8.4463309243500407e+02
LogToConsole  0

Academic license 2539022 - for non-commercial use only - registered to al___@studenti.unimi.it
Optimize a model with 33629 rows, 5500 columns and 74825 nonzeros (Min)
Model fingerprint: 0x9337a3a1
Model has 5500 linear objective coefficients
Model has 162 quadratic constraints
Variable types: 0 continuous, 5500 integer (5500 binary)
Coefficient statistics:
  Matrix range     [1e+00, 9e+02]
  QMatrix range    [5e+01, 2e+02]
  Objective range  [1e+01, 2e+02]
  Bounds range     [1e+00, 1e+00]
  RHS range        [1e+00, 1e+09]
  QRHS range       [1e+02, 6e+02]
Presolve removed 33027 rows and 4608 columns
Presolve time: 0.16s
Presolved: 7329 rows, 7463 columns, 48733 nonzeros
Variable types: 0 continuous, 7463 integer (7463 binary)

Root relaxation: objective 4.149663e+03, 1350 iterations, 0.10 seconds (0.15 work units)

    Nodes    |    Current Node    |     Objective Bounds      |     Work
 Expl Unexpl |  Obj  Depth IntInf | Incumbent    BestBd   Gap | It/Node Time

     0     0 4149.66346    0  182          - 4149.66346      -     -    0s
     0     0 4156.35062    0  177          - 4156.35062      -     -    0s
     0     0 4757.71159    0  158          - 4757.71159      -     -    1s
     0     0 infeasible    0               - infeasible      -     -    1s

Cutting planes:
  Gomory: 4
  Cover: 22
  Clique: 17
  MIR: 17
  Knapsack: 12
  StrongCG: 13
  GUB cover: 4
  Zero half: 7
  RLT: 65
  Relax-and-lift: 7
  BQP: 8

Explored 1 nodes (3137 simplex iterations) in 1.55 seconds (1.19 work units)
Thread count was 22 (of 22 available processors)

Solution count 0

Model is infeasible
Best objective -, best bound -, gap -

User-callback calls 961, time in user-callback 0.00 sec
